(set-info :smt-lib-version 2.6)
(set-logic QF_SLIA)
(set-info :source |
Generated by: Dmitry Blotsky1, Federico Mora, Murphy Berzish, Yunhui Zheng, Ifaz Kabir, Vijay Ganesh, Zhengyang Lu
Generated on: 2018-01-24
Generator: StringFuzz
Application: Evaluate string solvers
Target solver: Z3str3, CVC4, Z3str2, Norn
Publications: Blotsky, D., Mora, F., Berzish, M., Zheng, Y., Kabir, I., & Ganesh, V. (2018). Stringfuzz: A fuzzer for string solvers. In CAV 2018.
Description: new instance generated by StringFuzz, a modular string and regex fuzzer
|)
(set-info :license "https://creativecommons.org/licenses/by/4.0/")
(set-info :category "random")
(set-info :status unknown)

(declare-fun var0 () String)
(assert (str.in_re var0 (re.++ (re.union (re.* (str.to_re "00")) (re.+ (str.to_re "11"))) (re.++ (re.* (re.* (str.to_re "22"))) (re.++ (re.+ (re.+ (str.to_re "3"))) (re.++ (re.+ (re.* (str.to_re "4"))) (re.++ (re.* (re.* (str.to_re "555"))) (re.++ (re.+ (re.* (str.to_re "66"))) (re.++ (re.+ (re.union (str.to_re "777") (str.to_re "8"))) (re.++ (re.* (re.* (str.to_re "999"))) (re.++ (re.+ (re.* (str.to_re "aa"))) (re.++ (re.+ (re.* (str.to_re "bbb"))) (re.++ (re.+ (re.union (str.to_re "ccc") (str.to_re "d"))) (re.++ (re.+ (re.* (str.to_re "eee"))) (re.++ (re.union (re.union (str.to_re "fff") (str.to_re "g")) (re.* (str.to_re "hhh"))) (re.++ (re.+ (re.+ (str.to_re "ii"))) (re.++ (re.+ (re.* (str.to_re "j"))) (re.++ (re.* (re.union (str.to_re "kk") (str.to_re "ll"))) (re.++ (re.union (re.+ (str.to_re "m")) (re.* (str.to_re "n"))) (re.++ (re.union (re.union (str.to_re "o") (str.to_re "pp")) (re.* (str.to_re "q"))) (re.++ (re.* (re.union (str.to_re "rrr") (str.to_re "ss"))) (re.++ (re.+ (re.* (str.to_re "ttt"))) (re.++ (re.* (re.union (str.to_re "uu") (str.to_re "v"))) (re.++ (re.* (re.+ (str.to_re "w"))) (re.++ (re.+ (re.* (str.to_re "x"))) (re.++ (re.* (re.* (str.to_re "yy"))) (re.++ (re.+ (re.+ (str.to_re "zzz"))) (re.++ (re.union (re.* (str.to_re "A")) (re.union (str.to_re "B") (str.to_re "CCC"))) (re.+ (re.* (str.to_re "DD")))))))))))))))))))))))))))))))
(check-sat)
(exit)
